c CNF file corresponding to a (partial) station packing problem.
p cnf 5581 229
1 2 3 4 5 6 7 8 9 10 11 12 13 14 0
-1 -2 0
-1 -3 0
-1 -4 0
-1 -5 0
-1 -6 0
-1 -7 0
-1 -8 0
-1 -9 0
-1 -10 0
-1 -11 0
-1 -12 0
-1 -13 0
-1 -14 0
-2 -3 0
-2 -4 0
-2 -5 0
-2 -6 0
-2 -7 0
-2 -8 0
-2 -9 0
-2 -10 0
-2 -11 0
-2 -12 0
-2 -13 0
-2 -14 0
-3 -4 0
-3 -5 0
-3 -6 0
-3 -7 0
-3 -8 0
-3 -9 0
-3 -10 0
-3 -11 0
-3 -12 0
-3 -13 0
-3 -14 0
-4 -5 0
-4 -6 0
-4 -7 0
-4 -8 0
-4 -9 0
-4 -10 0
-4 -11 0
-4 -12 0
-4 -13 0
-4 -14 0
-5 -6 0
-5 -7 0
-5 -8 0
-5 -9 0
-5 -10 0
-5 -11 0
-5 -12 0
-5 -13 0
-5 -14 0
-6 -7 0
-6 -8 0
-6 -9 0
-6 -10 0
-6 -11 0
-6 -12 0
-6 -13 0
-6 -14 0
-7 -8 0
-7 -9 0
-7 -10 0
-7 -11 0
-7 -12 0
-7 -13 0
-7 -14 0
-8 -9 0
-8 -10 0
-8 -11 0
-8 -12 0
-8 -13 0
-8 -14 0
-9 -10 0
-9 -11 0
-9 -12 0
-9 -13 0
-9 -14 0
-10 -11 0
-10 -12 0
-10 -13 0
-10 -14 0
-11 -12 0
-11 -13 0
-11 -14 0
-12 -13 0
-12 -14 0
-13 -14 0
5565 5566 5567 5568 5569 5570 5571 5572 5573 5574 5575 5576 5577 5578 5579 5580 5581 0
-5565 -5566 0
-5565 -5567 0
-5565 -5568 0
-5565 -5569 0
-5565 -5570 0
-5565 -5571 0
-5565 -5572 0
-5565 -5573 0
-5565 -5574 0
-5565 -5575 0
-5565 -5576 0
-5565 -5577 0
-5565 -5578 0
-5565 -5579 0
-5565 -5580 0
-5565 -5581 0
-5566 -5567 0
-5566 -5568 0
-5566 -5569 0
-5566 -5570 0
-5566 -5571 0
-5566 -5572 0
-5566 -5573 0
-5566 -5574 0
-5566 -5575 0
-5566 -5576 0
-5566 -5577 0
-5566 -5578 0
-5566 -5579 0
-5566 -5580 0
-5566 -5581 0
-5567 -5568 0
-5567 -5569 0
-5567 -5570 0
-5567 -5571 0
-5567 -5572 0
-5567 -5573 0
-5567 -5574 0
-5567 -5575 0
-5567 -5576 0
-5567 -5577 0
-5567 -5578 0
-5567 -5579 0
-5567 -5580 0
-5567 -5581 0
-5568 -5569 0
-5568 -5570 0
-5568 -5571 0
-5568 -5572 0
-5568 -5573 0
-5568 -5574 0
-5568 -5575 0
-5568 -5576 0
-5568 -5577 0
-5568 -5578 0
-5568 -5579 0
-5568 -5580 0
-5568 -5581 0
-5569 -5570 0
-5569 -5571 0
-5569 -5572 0
-5569 -5573 0
-5569 -5574 0
-5569 -5575 0
-5569 -5576 0
-5569 -5577 0
-5569 -5578 0
-5569 -5579 0
-5569 -5580 0
-5569 -5581 0
-5570 -5571 0
-5570 -5572 0
-5570 -5573 0
-5570 -5574 0
-5570 -5575 0
-5570 -5576 0
-5570 -5577 0
-5570 -5578 0
-5570 -5579 0
-5570 -5580 0
-5570 -5581 0
-5571 -5572 0
-5571 -5573 0
-5571 -5574 0
-5571 -5575 0
-5571 -5576 0
-5571 -5577 0
-5571 -5578 0
-5571 -5579 0
-5571 -5580 0
-5571 -5581 0
-5572 -5573 0
-5572 -5574 0
-5572 -5575 0
-5572 -5576 0
-5572 -5577 0
-5572 -5578 0
-5572 -5579 0
-5572 -5580 0
-5572 -5581 0
-5573 -5574 0
-5573 -5575 0
-5573 -5576 0
-5573 -5577 0
-5573 -5578 0
-5573 -5579 0
-5573 -5580 0
-5573 -5581 0
-5574 -5575 0
-5574 -5576 0
-5574 -5577 0
-5574 -5578 0
-5574 -5579 0
-5574 -5580 0
-5574 -5581 0
-5575 -5576 0
-5575 -5577 0
-5575 -5578 0
-5575 -5579 0
-5575 -5580 0
-5575 -5581 0
-5576 -5577 0
-5576 -5578 0
-5576 -5579 0
-5576 -5580 0
-5576 -5581 0
-5577 -5578 0
-5577 -5579 0
-5577 -5580 0
-5577 -5581 0
-5578 -5579 0
-5578 -5580 0
-5578 -5581 0
-5579 -5580 0
-5579 -5581 0
-5580 -5581 0
